************************************************************************
file with basedata            : mm30_.bas
initial value random generator: 1769258131
************************************************************************
projects                      :  1
jobs (incl. supersource/sink ):  12
horizon                       :  76
RESOURCES
  - renewable                 :  2   R
  - nonrenewable              :  2   N
  - doubly constrained        :  0   D
************************************************************************
PROJECT INFORMATION:
pronr.  #jobs rel.date duedate tardcost  MPM-Time
    1     10      0       14        1       14
************************************************************************
PRECEDENCE RELATIONS:
jobnr.    #modes  #successors   successors
   0        1          3           1   2   3
   1        3          3           4   6   8
   2        3          2           5   6
   3        3          2           9  10
   4        3          2           5   9
   5        3          1           7
   6        3          1          10
   7        3          1          10
   8        3          1          11
   9        3          1          11
  10        3          1          11
  11        1          0        
************************************************************************
REQUESTS/DURATIONS:
jobnr. mode duration  R 1  R 2  R 3  R 4  E(W 1)  E(W 2)  E(W 3)
------------------------------------------------------------------------
  0      1     0       0    0    0    0     0       0       0
  1      1     2       3    0    9    6     6      18      12
  2      1     2       0    7    5    3    14      10       6
  3      1     1      10    0   10   10    10      10      10
  4      1     3       7    0    3    4    21       9      12
  5      1     3       0    2    3    7     6       9      21
  6      1     1       8    0    6    6     8       6       6
  7      1     1       0    9    6    6     9       6       6
  8      1     3       0    8    5    2    24      15       6
  9      1     1       4    0    5    9     4       5       9
 10      1     5       2    0    5    9    10      25      45
 11      1     0       0    0    0    0     0       0       0
************************************************************************
RESOURCEAVAILABILITIES:
  R 1  R 2  R 3
   36   51   48
************************************************************************
RESOURCE LIMITS:
jobnr.  l(R 1)  u(R 1)  l(R 2)  u(R 2)  l(R 3)  u(R 3)
------------------------------------------------------------------------
  0        0       0       0       0       0       0
  1        2       3       5       9       3       6
  2        4       7       3       5       2       3
  3        5      10       5      10       5      10
  4        4       7       2       3       2       4
  5        1       2       2       3       4       7
  6        4       8       3       6       3       6
  7        5       9       3       6       3       6
  8        4       8       3       5       1       2
  9        2       4       3       5       5       9
 10        1       2       3       5       5       9
 11        0       0       0       0       0       0
************************************************************************
SCENARIOS:
------------------------------------------------------------------------
RESOURCE k = 1
s = 1: (0, 8, 11, 15, 26, 5, 7, 10, 33, 5, 13, 0)
s = 2: (0, 10, 11, 9, 29, 5, 11, 10, 21, 3, 9, 0)
s = 3: (0, 8, 13, 8, 14, 10, 10, 10, 21, 6, 9, 0)
s = 4: (0, 11, 12, 9, 16, 5, 10, 8, 24, 3, 10, 0)
s = 5: (0, 10, 14, 8, 26, 10, 8, 10, 24, 3, 14, 0)
s = 6: (0, 4, 13, 8, 25, 6, 10, 9, 30, 4, 9, 0)
s = 7: (0, 10, 18, 11, 20, 5, 8, 10, 28, 6, 7, 0)
s = 8: (0, 6, 9, 11, 31, 7, 9, 10, 23, 7, 12, 0)
s = 9: (0, 4, 10, 7, 18, 7, 10, 7, 26, 5, 13, 0)
s = 10: (0, 4, 12, 8, 15, 8, 8, 9, 20, 4, 6, 0)
s = 11: (0, 8, 16, 8, 15, 5, 7, 13, 15, 5, 7, 0)
s = 12: (0, 7, 15, 10, 33, 5, 8, 8, 18, 5, 12, 0)
s = 13: (0, 7, 11, 11, 17, 5, 9, 8, 21, 3, 6, 0)
s = 14: (0, 5, 12, 11, 20, 6, 9, 8, 22, 4, 14, 0)
s = 15: (0, 7, 17, 10, 19, 8, 8, 12, 23, 5, 8, 0)
s = 16: (0, 6, 11, 11, 30, 6, 11, 13, 20, 7, 11, 0)
s = 17: (0, 5, 9, 7, 21, 7, 7, 9, 14, 4, 10, 0)
s = 18: (0, 6, 25, 13, 15, 8, 7, 7, 35, 5, 12, 0)
s = 19: (0, 8, 11, 10, 25, 7, 10, 10, 25, 4, 10, 0)
s = 20: (0, 6, 14, 13, 14, 11, 13, 11, 26, 3, 13, 0)
s = 21: (0, 7, 20, 12, 16, 5, 7, 12, 26, 4, 13, 0)
s = 22: (0, 5, 10, 14, 19, 8, 9, 6, 23, 6, 6, 0)
s = 23: (0, 9, 15, 11, 15, 8, 12, 7, 20, 6, 9, 0)
s = 24: (0, 6, 15, 13, 18, 7, 9, 6, 21, 6, 8, 0)
s = 25: (0, 12, 15, 11, 20, 4, 8, 11, 31, 5, 7, 0)
s = 26: (0, 5, 9, 7, 20, 4, 14, 10, 22, 6, 9, 0)
s = 27: (0, 9, 21, 9, 19, 7, 10, 12, 30, 4, 10, 0)
s = 28: (0, 7, 13, 8, 27, 6, 6, 10, 28, 4, 9, 0)
s = 29: (0, 7, 10, 9, 24, 5, 5, 13, 25, 5, 13, 0)
s = 30: (0, 5, 14, 9, 33, 5, 9, 12, 35, 5, 9, 0)
s = 31: (0, 7, 12, 11, 18, 6, 6, 7, 26, 7, 10, 0)
s = 32: (0, 8, 14, 7, 32, 7, 5, 13, 24, 5, 8, 0)
s = 33: (0, 10, 14, 8, 30, 5, 14, 11, 27, 5, 8, 0)
s = 34: (0, 5, 23, 8, 22, 5, 11, 7, 30, 4, 10, 0)
s = 35: (0, 7, 16, 17, 13, 12, 12, 6, 21, 3, 13, 0)
s = 36: (0, 9, 13, 10, 30, 9, 7, 12, 23, 3, 7, 0)
s = 37: (0, 7, 11, 18, 12, 5, 11, 7, 20, 5, 7, 0)
s = 38: (0, 6, 17, 14, 28, 12, 5, 12, 26, 6, 10, 0)
s = 39: (0, 6, 18, 14, 19, 7, 9, 11, 30, 4, 10, 0)
s = 40: (0, 7, 16, 12, 23, 6, 9, 15, 29, 4, 13, 0)
s = 41: (0, 8, 11, 7, 21, 9, 15, 9, 22, 6, 8, 0)
s = 42: (0, 7, 13, 7, 18, 5, 6, 10, 14, 4, 12, 0)
s = 43: (0, 6, 19, 8, 24, 7, 9, 7, 32, 4, 8, 0)
s = 44: (0, 8, 16, 15, 14, 5, 9, 8, 31, 4, 10, 0)
s = 45: (0, 6, 21, 10, 14, 7, 7, 14, 36, 3, 10, 0)
s = 46: (0, 6, 18, 13, 20, 8, 10, 6, 24, 4, 10, 0)
s = 47: (0, 5, 11, 8, 32, 6, 8, 7, 23, 4, 9, 0)
s = 48: (0, 5, 16, 12, 21, 5, 10, 8, 22, 6, 10, 0)
s = 49: (0, 5, 18, 14, 22, 5, 5, 7, 31, 5, 12, 0)
s = 50: (0, 6, 10, 8, 13, 6, 8, 13, 17, 3, 14, 0)
s = 51: (0, 6, 21, 18, 15, 6, 5, 9, 14, 6, 14, 0)
s = 52: (0, 6, 20, 9, 21, 5, 8, 6, 19, 3, 12, 0)
s = 53: (0, 8, 12, 15, 29, 9, 8, 10, 28, 6, 11, 0)
s = 54: (0, 6, 10, 10, 25, 8, 7, 8, 18, 5, 8, 0)
s = 55: (0, 5, 23, 11, 20, 6, 7, 9, 30, 3, 15, 0)
s = 56: (0, 7, 14, 11, 20, 4, 8, 9, 29, 3, 16, 0)
s = 57: (0, 6, 11, 9, 19, 5, 7, 8, 20, 4, 12, 0)
s = 58: (0, 9, 11, 10, 18, 6, 5, 8, 27, 3, 9, 0)
s = 59: (0, 7, 17, 13, 25, 5, 6, 9, 30, 6, 7, 0)
s = 60: (0, 10, 11, 9, 21, 5, 6, 8, 29, 4, 17, 0)
s = 61: (0, 7, 10, 14, 21, 5, 6, 8, 22, 4, 8, 0)
s = 62: (0, 6, 11, 10, 33, 6, 7, 11, 21, 4, 7, 0)
s = 63: (0, 4, 17, 8, 17, 9, 5, 6, 36, 3, 10, 0)
s = 64: (0, 5, 19, 13, 35, 5, 10, 10, 39, 6, 10, 0)
s = 65: (0, 7, 23, 7, 25, 7, 9, 9, 29, 5, 9, 0)
s = 66: (0, 9, 14, 12, 22, 7, 6, 7, 28, 4, 14, 0)
s = 67: (0, 6, 10, 8, 14, 5, 6, 11, 20, 6, 12, 0)
s = 68: (0, 6, 15, 9, 31, 4, 11, 11, 14, 4, 14, 0)
s = 69: (0, 8, 14, 12, 20, 5, 6, 10, 26, 5, 8, 0)
s = 70: (0, 4, 26, 12, 25, 9, 10, 6, 30, 3, 8, 0)
s = 71: (0, 5, 14, 12, 16, 7, 7, 7, 21, 4, 9, 0)
s = 72: (0, 6, 13, 9, 35, 9, 10, 9, 18, 3, 9, 0)
s = 73: (0, 5, 9, 13, 18, 6, 8, 8, 16, 6, 10, 0)
s = 74: (0, 9, 15, 7, 24, 7, 9, 7, 26, 4, 10, 0)
s = 75: (0, 7, 19, 13, 22, 6, 9, 10, 14, 3, 7, 0)
s = 76: (0, 6, 12, 10, 12, 9, 7, 7, 15, 5, 11, 0)
s = 77: (0, 5, 16, 11, 25, 6, 7, 8, 28, 6, 9, 0)
s = 78: (0, 8, 10, 15, 27, 8, 9, 9, 21, 5, 12, 0)
s = 79: (0, 9, 28, 8, 29, 7, 7, 10, 14, 5, 16, 0)
s = 80: (0, 6, 12, 11, 15, 9, 7, 10, 20, 4, 11, 0)
s = 81: (0, 7, 12, 6, 19, 10, 12, 5, 21, 5, 11, 0)
s = 82: (0, 4, 15, 16, 28, 5, 8, 10, 27, 4, 7, 0)
s = 83: (0, 7, 13, 11, 25, 8, 5, 10, 45, 6, 9, 0)
s = 84: (0, 5, 18, 14, 16, 4, 12, 8, 31, 4, 8, 0)
s = 85: (0, 6, 15, 13, 21, 5, 8, 5, 18, 4, 10, 0)
s = 86: (0, 11, 23, 11, 21, 8, 10, 9, 22, 5, 18, 0)
s = 87: (0, 6, 17, 8, 32, 5, 7, 7, 26, 5, 12, 0)
s = 88: (0, 9, 9, 10, 33, 5, 7, 8, 17, 6, 6, 0)
s = 89: (0, 5, 26, 10, 27, 8, 9, 14, 24, 3, 11, 0)
s = 90: (0, 6, 16, 11, 17, 9, 8, 7, 29, 4, 10, 0)
s = 91: (0, 5, 21, 17, 24, 5, 10, 5, 17, 5, 8, 0)
s = 92: (0, 5, 20, 10, 28, 6, 12, 9, 27, 4, 9, 0)
s = 93: (0, 6, 10, 7, 29, 4, 5, 8, 20, 4, 9, 0)
s = 94: (0, 4, 16, 12, 21, 9, 8, 7, 21, 5, 18, 0)
s = 95: (0, 6, 10, 7, 24, 5, 6, 9, 14, 5, 8, 0)
s = 96: (0, 7, 10, 13, 27, 6, 12, 11, 25, 6, 9, 0)
s = 97: (0, 6, 14, 8, 19, 4, 9, 12, 22, 4, 8, 0)
s = 98: (0, 7, 20, 9, 17, 8, 14, 8, 18, 5, 10, 0)
s = 99: (0, 4, 17, 9, 21, 7, 8, 12, 17, 3, 16, 0)
s = 100: (0, 6, 9, 8, 17, 7, 6, 15, 34, 3, 14, 0)
s = 101: (0, 5, 13, 9, 31, 6, 5, 9, 14, 4, 13, 0)
s = 102: (0, 8, 18, 8, 20, 6, 13, 8, 26, 5, 19, 0)
s = 103: (0, 8, 10, 8, 16, 8, 8, 11, 28, 6, 8, 0)
s = 104: (0, 4, 8, 8, 35, 5, 13, 12, 14, 5, 10, 0)
s = 105: (0, 8, 17, 11, 18, 8, 9, 6, 17, 4, 9, 0)
s = 106: (0, 11, 14, 7, 14, 7, 6, 15, 23, 5, 10, 0)
s = 107: (0, 6, 18, 11, 15, 9, 6, 12, 30, 3, 13, 0)
s = 108: (0, 6, 12, 13, 23, 8, 9, 9, 15, 6, 9, 0)
s = 109: (0, 7, 14, 14, 18, 4, 5, 12, 29, 4, 8, 0)
s = 110: (0, 6, 11, 11, 26, 10, 7, 11, 26, 4, 6, 0)
s = 111: (0, 8, 15, 7, 23, 4, 8, 13, 18, 3, 9, 0)
s = 112: (0, 7, 13, 9, 12, 7, 9, 10, 30, 4, 7, 0)
s = 113: (0, 10, 10, 10, 16, 6, 8, 8, 28, 4, 11, 0)
s = 114: (0, 6, 16, 8, 18, 5, 9, 8, 30, 3, 7, 0)
s = 115: (0, 6, 8, 7, 27, 5, 13, 7, 16, 6, 10, 0)
s = 116: (0, 8, 13, 8, 16, 8, 11, 9, 17, 3, 9, 0)
s = 117: (0, 6, 15, 7, 16, 5, 7, 17, 28, 6, 11, 0)
s = 118: (0, 9, 18, 12, 18, 11, 6, 13, 15, 3, 9, 0)
s = 119: (0, 8, 12, 10, 11, 5, 5, 12, 21, 7, 10, 0)
s = 120: (0, 10, 11, 13, 22, 10, 6, 7, 16, 5, 7, 0)
s = 121: (0, 4, 10, 6, 17, 5, 8, 7, 24, 4, 14, 0)
s = 122: (0, 7, 13, 12, 15, 6, 7, 8, 20, 5, 9, 0)
s = 123: (0, 10, 12, 12, 22, 6, 10, 10, 33, 3, 7, 0)
s = 124: (0, 7, 10, 11, 19, 5, 7, 12, 29, 6, 7, 0)
s = 125: (0, 4, 13, 9, 19, 6, 9, 12, 21, 7, 16, 0)
s = 126: (0, 10, 19, 9, 23, 4, 8, 11, 32, 4, 6, 0)
s = 127: (0, 6, 21, 12, 24, 8, 7, 7, 16, 3, 9, 0)
s = 128: (0, 10, 20, 11, 25, 4, 5, 6, 18, 3, 14, 0)
s = 129: (0, 9, 26, 12, 25, 7, 10, 8, 22, 4, 16, 0)
s = 130: (0, 5, 15, 12, 19, 6, 7, 9, 30, 5, 13, 0)
s = 131: (0, 7, 16, 10, 27, 8, 6, 9, 42, 5, 9, 0)
s = 132: (0, 6, 9, 11, 19, 7, 8, 6, 43, 6, 7, 0)
s = 133: (0, 4, 15, 8, 28, 7, 8, 8, 16, 5, 9, 0)
s = 134: (0, 6, 25, 9, 21, 6, 6, 9, 37, 5, 8, 0)
s = 135: (0, 5, 12, 10, 18, 11, 10, 8, 21, 3, 14, 0)
s = 136: (0, 4, 20, 11, 14, 6, 16, 8, 25, 7, 14, 0)
s = 137: (0, 7, 15, 8, 18, 6, 8, 7, 21, 3, 8, 0)
s = 138: (0, 6, 16, 10, 15, 6, 7, 9, 18, 4, 11, 0)
s = 139: (0, 6, 8, 8, 22, 7, 6, 7, 25, 3, 11, 0)
s = 140: (0, 6, 19, 8, 18, 7, 8, 6, 17, 6, 9, 0)
s = 141: (0, 8, 14, 7, 20, 5, 8, 11, 28, 4, 8, 0)
s = 142: (0, 7, 11, 6, 22, 4, 10, 11, 26, 5, 9, 0)
s = 143: (0, 7, 12, 11, 15, 8, 6, 15, 18, 4, 6, 0)
s = 144: (0, 7, 25, 10, 23, 8, 8, 8, 19, 4, 9, 0)
s = 145: (0, 7, 10, 6, 24, 7, 8, 11, 16, 5, 15, 0)
s = 146: (0, 7, 13, 8, 18, 7, 10, 10, 21, 5, 10, 0)
s = 147: (0, 10, 10, 9, 24, 5, 9, 11, 29, 4, 10, 0)
s = 148: (0, 7, 13, 9, 24, 7, 8, 10, 15, 4, 19, 0)
s = 149: (0, 5, 13, 11, 24, 4, 10, 12, 42, 4, 7, 0)
s = 150: (0, 6, 17, 8, 17, 6, 11, 14, 34, 5, 6, 0)
s = 151: (0, 8, 10, 8, 32, 7, 14, 15, 33, 4, 9, 0)
s = 152: (0, 4, 20, 12, 30, 4, 7, 9, 28, 7, 13, 0)
s = 153: (0, 5, 22, 8, 32, 6, 13, 11, 26, 4, 11, 0)
s = 154: (0, 6, 16, 7, 15, 6, 9, 9, 30, 4, 15, 0)
s = 155: (0, 8, 11, 11, 21, 7, 7, 6, 32, 4, 7, 0)
s = 156: (0, 5, 11, 8, 25, 4, 7, 7, 22, 5, 14, 0)
s = 157: (0, 5, 14, 12, 38, 6, 10, 14, 24, 4, 11, 0)
s = 158: (0, 5, 15, 13, 25, 8, 5, 11, 26, 3, 9, 0)
s = 159: (0, 7, 16, 9, 19, 5, 8, 5, 23, 3, 14, 0)
s = 160: (0, 5, 20, 12, 17, 7, 6, 9, 28, 5, 11, 0)
s = 161: (0, 5, 17, 10, 18, 4, 8, 10, 23, 6, 10, 0)
s = 162: (0, 4, 11, 11, 24, 7, 7, 12, 15, 4, 9, 0)
s = 163: (0, 5, 20, 10, 30, 5, 11, 8, 28, 6, 6, 0)
s = 164: (0, 6, 25, 10, 20, 6, 6, 9, 37, 4, 13, 0)
s = 165: (0, 6, 12, 9, 18, 6, 8, 12, 23, 4, 10, 0)
s = 166: (0, 9, 14, 8, 12, 4, 9, 16, 33, 4, 12, 0)
s = 167: (0, 8, 16, 8, 15, 4, 7, 12, 31, 5, 8, 0)
s = 168: (0, 7, 12, 8, 23, 6, 13, 11, 22, 3, 9, 0)
s = 169: (0, 8, 9, 11, 20, 4, 5, 11, 30, 5, 10, 0)
s = 170: (0, 8, 16, 7, 18, 6, 8, 7, 29, 3, 13, 0)
s = 171: (0, 6, 18, 13, 19, 6, 12, 12, 14, 3, 10, 0)
s = 172: (0, 5, 9, 18, 18, 5, 6, 12, 31, 5, 9, 0)
s = 173: (0, 6, 14, 11, 12, 8, 10, 8, 22, 4, 14, 0)
s = 174: (0, 8, 14, 12, 18, 10, 7, 11, 23, 4, 12, 0)
s = 175: (0, 9, 8, 14, 27, 7, 10, 9, 25, 4, 8, 0)
s = 176: (0, 8, 16, 13, 20, 8, 8, 7, 47, 4, 15, 0)
s = 177: (0, 7, 16, 8, 18, 6, 9, 8, 25, 5, 14, 0)
s = 178: (0, 6, 15, 9, 21, 8, 8, 10, 18, 4, 13, 0)
s = 179: (0, 10, 9, 14, 38, 8, 6, 16, 15, 5, 11, 0)
s = 180: (0, 8, 12, 9, 24, 8, 9, 7, 21, 4, 9, 0)
s = 181: (0, 7, 10, 9, 15, 8, 8, 9, 17, 4, 11, 0)
s = 182: (0, 10, 12, 7, 12, 8, 8, 8, 23, 6, 10, 0)
s = 183: (0, 9, 15, 12, 34, 4, 7, 8, 20, 4, 8, 0)
s = 184: (0, 6, 12, 10, 18, 6, 5, 9, 16, 5, 8, 0)
s = 185: (0, 5, 19, 7, 22, 5, 9, 7, 20, 5, 14, 0)
s = 186: (0, 7, 10, 6, 15, 4, 7, 11, 19, 4, 8, 0)
s = 187: (0, 10, 21, 9, 17, 8, 12, 14, 32, 3, 11, 0)
s = 188: (0, 8, 18, 11, 17, 5, 6, 9, 35, 4, 11, 0)
s = 189: (0, 5, 24, 14, 25, 8, 13, 9, 33, 5, 14, 0)
s = 190: (0, 7, 19, 13, 32, 5, 10, 6, 33, 5, 17, 0)
s = 191: (0, 5, 16, 10, 20, 9, 11, 12, 29, 4, 13, 0)
s = 192: (0, 6, 10, 11, 22, 4, 10, 10, 32, 5, 16, 0)
s = 193: (0, 5, 11, 7, 16, 7, 8, 11, 17, 3, 15, 0)
s = 194: (0, 4, 13, 18, 18, 4, 8, 13, 16, 5, 12, 0)
s = 195: (0, 5, 13, 10, 20, 5, 6, 12, 29, 4, 12, 0)
s = 196: (0, 8, 14, 10, 24, 5, 9, 11, 32, 6, 10, 0)
s = 197: (0, 7, 10, 14, 21, 4, 8, 8, 31, 6, 12, 0)
s = 198: (0, 7, 16, 11, 25, 9, 12, 8, 23, 6, 13, 0)
s = 199: (0, 7, 16, 6, 25, 8, 8, 10, 17, 4, 14, 0)
s = 200: (0, 6, 15, 12, 16, 6, 14, 9, 23, 3, 13, 0)
------------------------------------------------------------------------
RESOURCE k = 2
s = 1: (0, 22, 8, 15, 12, 7, 6, 7, 21, 6, 32, 0)
s = 2: (0, 30, 8, 9, 13, 7, 8, 7, 14, 4, 23, 0)
s = 3: (0, 22, 10, 8, 6, 15, 8, 7, 13, 8, 22, 0)
s = 4: (0, 31, 9, 9, 7, 8, 7, 6, 15, 4, 25, 0)
s = 5: (0, 30, 10, 8, 12, 14, 6, 7, 15, 4, 35, 0)
s = 6: (0, 11, 10, 8, 11, 9, 7, 6, 19, 5, 21, 0)
s = 7: (0, 28, 13, 11, 9, 7, 6, 7, 18, 8, 16, 0)
s = 8: (0, 17, 7, 11, 14, 10, 7, 7, 15, 9, 29, 0)
s = 9: (0, 11, 8, 7, 8, 10, 8, 5, 16, 7, 31, 0)
s = 10: (0, 12, 9, 8, 7, 12, 6, 6, 12, 5, 15, 0)
s = 11: (0, 22, 11, 8, 7, 8, 5, 9, 10, 6, 18, 0)
s = 12: (0, 21, 11, 10, 14, 7, 6, 6, 12, 6, 28, 0)
s = 13: (0, 20, 8, 11, 7, 7, 7, 5, 13, 3, 14, 0)
s = 14: (0, 14, 9, 11, 9, 9, 7, 5, 14, 5, 34, 0)
s = 15: (0, 20, 12, 10, 8, 11, 6, 8, 15, 6, 19, 0)
s = 16: (0, 16, 8, 11, 13, 9, 8, 9, 13, 8, 27, 0)
s = 17: (0, 15, 6, 7, 9, 10, 5, 6, 9, 5, 25, 0)
s = 18: (0, 18, 18, 13, 7, 11, 6, 5, 22, 6, 30, 0)
s = 19: (0, 24, 8, 10, 11, 11, 7, 7, 16, 5, 25, 0)
s = 20: (0, 17, 10, 13, 6, 16, 10, 8, 17, 4, 33, 0)
s = 21: (0, 21, 14, 12, 7, 8, 6, 8, 16, 5, 33, 0)
s = 22: (0, 14, 7, 14, 8, 12, 7, 4, 14, 7, 15, 0)
s = 23: (0, 25, 11, 11, 7, 12, 9, 5, 13, 7, 21, 0)
s = 24: (0, 18, 11, 13, 8, 11, 7, 4, 13, 7, 19, 0)
s = 25: (0, 34, 11, 11, 9, 6, 6, 8, 20, 7, 16, 0)
s = 26: (0, 14, 7, 7, 9, 6, 11, 7, 14, 7, 21, 0)
s = 27: (0, 26, 15, 9, 8, 11, 8, 8, 19, 5, 24, 0)
s = 28: (0, 21, 10, 8, 12, 9, 5, 7, 17, 5, 21, 0)
s = 29: (0, 20, 7, 9, 11, 7, 4, 9, 16, 7, 32, 0)
s = 30: (0, 15, 10, 9, 14, 7, 7, 8, 22, 6, 22, 0)
s = 31: (0, 20, 9, 11, 8, 9, 5, 5, 17, 9, 23, 0)
s = 32: (0, 22, 10, 7, 14, 10, 4, 9, 15, 6, 19, 0)
s = 33: (0, 28, 10, 8, 13, 7, 11, 8, 17, 6, 19, 0)
s = 34: (0, 14, 17, 8, 10, 8, 9, 5, 19, 5, 25, 0)
s = 35: (0, 19, 12, 17, 6, 17, 9, 4, 13, 4, 32, 0)
s = 36: (0, 26, 9, 10, 13, 14, 6, 8, 14, 4, 17, 0)
s = 37: (0, 21, 8, 18, 6, 8, 9, 5, 13, 6, 16, 0)
s = 38: (0, 16, 12, 14, 12, 18, 4, 8, 16, 7, 25, 0)
s = 39: (0, 17, 13, 14, 9, 10, 7, 7, 19, 4, 24, 0)
s = 40: (0, 19, 12, 12, 10, 8, 7, 10, 19, 5, 32, 0)
s = 41: (0, 24, 8, 7, 9, 13, 12, 6, 14, 8, 20, 0)
s = 42: (0, 21, 9, 7, 8, 7, 4, 7, 9, 5, 30, 0)
s = 43: (0, 16, 14, 8, 10, 10, 7, 5, 20, 5, 20, 0)
s = 44: (0, 23, 11, 15, 6, 7, 7, 5, 19, 5, 24, 0)
s = 45: (0, 16, 15, 10, 6, 11, 5, 9, 23, 4, 25, 0)
s = 46: (0, 18, 13, 13, 9, 11, 8, 4, 15, 5, 24, 0)
s = 47: (0, 13, 8, 8, 14, 9, 6, 5, 14, 5, 21, 0)
s = 48: (0, 14, 11, 12, 9, 7, 7, 5, 14, 8, 25, 0)
s = 49: (0, 14, 13, 14, 10, 7, 4, 5, 19, 6, 28, 0)
s = 50: (0, 17, 8, 8, 6, 8, 6, 9, 11, 4, 34, 0)
s = 51: (0, 18, 15, 18, 7, 8, 4, 6, 9, 7, 33, 0)
s = 52: (0, 18, 15, 9, 9, 8, 6, 4, 12, 4, 29, 0)
s = 53: (0, 24, 9, 15, 13, 13, 6, 7, 18, 8, 28, 0)
s = 54: (0, 18, 7, 10, 11, 12, 5, 5, 12, 7, 20, 0)
s = 55: (0, 14, 16, 11, 9, 8, 5, 6, 19, 4, 36, 0)
s = 56: (0, 21, 10, 11, 9, 5, 6, 6, 18, 3, 40, 0)
s = 57: (0, 18, 8, 9, 9, 7, 6, 6, 12, 5, 28, 0)
s = 58: (0, 27, 8, 10, 8, 9, 4, 6, 17, 4, 23, 0)
s = 59: (0, 19, 12, 13, 11, 8, 5, 6, 19, 7, 17, 0)
s = 60: (0, 28, 8, 9, 9, 7, 5, 5, 18, 5, 43, 0)
s = 61: (0, 21, 7, 14, 9, 8, 5, 6, 14, 4, 20, 0)
s = 62: (0, 18, 8, 10, 14, 9, 6, 7, 13, 5, 17, 0)
s = 63: (0, 12, 12, 8, 7, 13, 4, 4, 22, 3, 25, 0)
s = 64: (0, 14, 14, 13, 15, 8, 7, 7, 25, 7, 25, 0)
s = 65: (0, 21, 17, 7, 11, 10, 7, 6, 18, 6, 21, 0)
s = 66: (0, 25, 10, 12, 10, 10, 5, 5, 18, 5, 35, 0)
s = 67: (0, 16, 8, 8, 6, 7, 5, 8, 13, 8, 29, 0)
s = 68: (0, 18, 11, 9, 14, 6, 8, 8, 9, 5, 34, 0)
s = 69: (0, 23, 10, 12, 9, 8, 5, 7, 17, 6, 18, 0)
s = 70: (0, 12, 19, 12, 11, 13, 8, 4, 19, 4, 19, 0)
s = 71: (0, 13, 10, 12, 7, 10, 6, 5, 13, 5, 22, 0)
s = 72: (0, 16, 9, 9, 15, 13, 8, 6, 11, 4, 22, 0)
s = 73: (0, 15, 7, 13, 8, 9, 6, 5, 10, 7, 25, 0)
s = 74: (0, 26, 11, 7, 11, 10, 7, 5, 16, 5, 23, 0)
s = 75: (0, 20, 14, 13, 10, 9, 7, 7, 9, 3, 16, 0)
s = 76: (0, 18, 9, 10, 6, 14, 6, 5, 9, 6, 27, 0)
s = 77: (0, 13, 11, 11, 11, 8, 5, 6, 18, 8, 23, 0)
s = 78: (0, 22, 7, 15, 12, 12, 7, 6, 13, 6, 30, 0)
s = 79: (0, 27, 20, 8, 13, 10, 5, 7, 9, 6, 38, 0)
s = 80: (0, 18, 9, 11, 7, 14, 6, 7, 13, 5, 26, 0)
s = 81: (0, 20, 9, 6, 8, 14, 9, 4, 13, 6, 27, 0)
s = 82: (0, 11, 11, 16, 12, 7, 6, 7, 17, 5, 18, 0)
s = 83: (0, 19, 10, 11, 11, 12, 4, 7, 28, 7, 22, 0)
s = 84: (0, 15, 13, 14, 7, 6, 9, 5, 19, 5, 20, 0)
s = 85: (0, 16, 11, 13, 9, 7, 6, 4, 12, 5, 25, 0)
s = 86: (0, 32, 16, 11, 9, 11, 8, 6, 14, 6, 45, 0)
s = 87: (0, 16, 12, 8, 14, 8, 6, 5, 17, 6, 28, 0)
s = 88: (0, 25, 6, 10, 14, 7, 6, 5, 11, 7, 14, 0)
s = 89: (0, 14, 19, 10, 12, 11, 7, 10, 15, 4, 27, 0)
s = 90: (0, 18, 12, 11, 8, 14, 6, 5, 18, 4, 24, 0)
s = 91: (0, 13, 15, 17, 10, 7, 8, 4, 11, 6, 18, 0)
s = 92: (0, 13, 14, 10, 12, 9, 9, 6, 17, 4, 21, 0)
s = 93: (0, 16, 8, 7, 13, 6, 4, 6, 13, 5, 23, 0)
s = 94: (0, 12, 11, 12, 9, 13, 6, 5, 13, 6, 44, 0)
s = 95: (0, 17, 7, 7, 10, 8, 5, 6, 9, 6, 19, 0)
s = 96: (0, 19, 7, 13, 12, 8, 9, 7, 16, 8, 22, 0)
s = 97: (0, 18, 10, 8, 8, 6, 7, 8, 14, 5, 20, 0)
s = 98: (0, 20, 14, 9, 8, 12, 10, 6, 12, 6, 23, 0)
s = 99: (0, 11, 12, 9, 9, 10, 6, 8, 11, 4, 39, 0)
s = 100: (0, 16, 7, 8, 7, 10, 4, 10, 21, 3, 35, 0)
s = 101: (0, 14, 9, 9, 14, 9, 4, 6, 9, 5, 31, 0)
s = 102: (0, 23, 13, 8, 9, 8, 10, 6, 16, 6, 46, 0)
s = 103: (0, 24, 7, 8, 7, 12, 6, 7, 18, 7, 20, 0)
s = 104: (0, 10, 6, 8, 15, 8, 10, 8, 9, 6, 23, 0)
s = 105: (0, 23, 12, 11, 8, 11, 7, 4, 11, 5, 21, 0)
s = 106: (0, 33, 10, 7, 6, 10, 4, 10, 15, 6, 25, 0)
s = 107: (0, 18, 13, 11, 7, 13, 5, 8, 19, 4, 33, 0)
s = 108: (0, 18, 9, 13, 10, 12, 7, 6, 10, 7, 21, 0)
s = 109: (0, 19, 10, 14, 8, 6, 4, 8, 18, 5, 18, 0)
s = 110: (0, 16, 8, 11, 12, 14, 5, 7, 16, 5, 14, 0)
s = 111: (0, 22, 11, 7, 10, 6, 6, 9, 11, 3, 21, 0)
s = 112: (0, 19, 9, 9, 5, 11, 7, 7, 19, 5, 17, 0)
s = 113: (0, 29, 7, 10, 7, 9, 6, 5, 18, 5, 27, 0)
s = 114: (0, 17, 12, 8, 8, 7, 7, 5, 19, 4, 16, 0)
s = 115: (0, 16, 6, 7, 12, 7, 10, 5, 10, 8, 25, 0)
s = 116: (0, 24, 10, 8, 7, 12, 8, 6, 11, 4, 22, 0)
s = 117: (0, 16, 11, 7, 7, 7, 6, 11, 18, 8, 27, 0)
s = 118: (0, 27, 13, 12, 8, 17, 4, 9, 9, 4, 22, 0)
s = 119: (0, 24, 8, 10, 5, 7, 4, 8, 13, 9, 24, 0)
s = 120: (0, 29, 8, 13, 10, 14, 5, 5, 10, 6, 17, 0)
s = 121: (0, 11, 7, 6, 8, 8, 6, 5, 15, 5, 34, 0)
s = 122: (0, 20, 9, 12, 7, 8, 6, 6, 12, 6, 23, 0)
s = 123: (0, 29, 9, 12, 10, 9, 8, 7, 21, 4, 16, 0)
s = 124: (0, 20, 7, 11, 8, 8, 6, 8, 18, 7, 18, 0)
s = 125: (0, 12, 9, 9, 8, 8, 7, 8, 13, 8, 40, 0)
s = 126: (0, 28, 14, 9, 10, 6, 6, 7, 20, 5, 15, 0)
s = 127: (0, 18, 15, 12, 11, 11, 5, 5, 10, 3, 21, 0)
s = 128: (0, 30, 15, 11, 11, 6, 4, 4, 12, 4, 34, 0)
s = 129: (0, 25, 18, 12, 11, 10, 8, 5, 14, 5, 40, 0)
s = 130: (0, 15, 11, 12, 8, 9, 5, 6, 19, 6, 33, 0)
s = 131: (0, 19, 12, 10, 12, 11, 4, 6, 27, 6, 21, 0)
s = 132: (0, 18, 7, 11, 8, 11, 6, 4, 27, 7, 18, 0)
s = 133: (0, 12, 11, 8, 12, 10, 6, 6, 10, 6, 22, 0)
s = 134: (0, 18, 18, 9, 9, 9, 5, 6, 23, 6, 19, 0)
s = 135: (0, 14, 8, 10, 8, 16, 7, 6, 13, 3, 34, 0)
s = 136: (0, 11, 15, 11, 6, 9, 12, 6, 16, 8, 33, 0)
s = 137: (0, 21, 11, 8, 8, 9, 6, 5, 13, 3, 20, 0)
s = 138: (0, 18, 12, 10, 7, 8, 5, 6, 11, 5, 27, 0)
s = 139: (0, 18, 6, 8, 10, 10, 4, 5, 16, 4, 27, 0)
s = 140: (0, 16, 14, 8, 8, 10, 6, 4, 11, 7, 22, 0)
s = 141: (0, 23, 10, 7, 9, 7, 6, 8, 18, 5, 19, 0)
s = 142: (0, 19, 8, 6, 10, 5, 7, 7, 17, 6, 21, 0)
s = 143: (0, 21, 8, 11, 7, 12, 5, 10, 11, 5, 15, 0)
s = 144: (0, 20, 18, 10, 10, 12, 6, 6, 12, 4, 23, 0)
s = 145: (0, 20, 7, 6, 10, 10, 6, 8, 10, 6, 36, 0)
s = 146: (0, 21, 10, 8, 8, 10, 8, 7, 14, 7, 24, 0)
s = 147: (0, 28, 7, 9, 10, 7, 7, 8, 18, 5, 25, 0)
s = 148: (0, 19, 9, 9, 11, 10, 6, 7, 10, 5, 47, 0)
s = 149: (0, 13, 9, 11, 11, 6, 7, 8, 26, 5, 17, 0)
s = 150: (0, 16, 12, 8, 7, 9, 8, 9, 21, 6, 14, 0)
s = 151: (0, 23, 7, 8, 14, 10, 11, 10, 21, 4, 23, 0)
s = 152: (0, 11, 15, 12, 13, 6, 5, 6, 18, 9, 32, 0)
s = 153: (0, 13, 16, 8, 14, 9, 10, 8, 16, 5, 27, 0)
s = 154: (0, 16, 12, 7, 7, 9, 7, 6, 19, 5, 38, 0)
s = 155: (0, 22, 8, 11, 9, 10, 5, 4, 20, 5, 18, 0)
s = 156: (0, 15, 8, 8, 11, 6, 5, 5, 14, 6, 34, 0)
s = 157: (0, 13, 10, 12, 17, 9, 8, 9, 15, 4, 26, 0)
s = 158: (0, 14, 11, 13, 11, 12, 4, 7, 17, 4, 21, 0)
s = 159: (0, 19, 12, 9, 9, 7, 6, 4, 15, 3, 34, 0)
s = 160: (0, 13, 15, 12, 8, 10, 5, 6, 18, 6, 27, 0)
s = 161: (0, 14, 13, 10, 8, 5, 6, 7, 14, 7, 25, 0)
s = 162: (0, 10, 8, 11, 11, 11, 5, 8, 10, 4, 22, 0)
s = 163: (0, 15, 14, 10, 13, 7, 8, 5, 18, 7, 14, 0)
s = 164: (0, 16, 18, 10, 9, 9, 5, 6, 24, 5, 32, 0)
s = 165: (0, 16, 9, 9, 8, 9, 6, 8, 15, 5, 24, 0)
s = 166: (0, 25, 10, 8, 6, 5, 7, 11, 21, 5, 29, 0)
s = 167: (0, 24, 11, 8, 7, 6, 5, 8, 20, 6, 20, 0)
s = 168: (0, 20, 8, 8, 10, 8, 10, 8, 14, 4, 21, 0)
s = 169: (0, 22, 7, 11, 9, 6, 4, 7, 19, 6, 25, 0)
s = 170: (0, 24, 12, 7, 8, 8, 6, 5, 18, 4, 31, 0)
s = 171: (0, 16, 13, 13, 8, 9, 9, 8, 9, 4, 25, 0)
s = 172: (0, 14, 7, 18, 8, 7, 4, 8, 19, 7, 23, 0)
s = 173: (0, 16, 10, 11, 6, 11, 7, 5, 14, 4, 34, 0)
s = 174: (0, 22, 10, 12, 8, 14, 5, 7, 14, 5, 28, 0)
s = 175: (0, 25, 6, 14, 12, 11, 8, 6, 16, 5, 20, 0)
s = 176: (0, 23, 12, 13, 9, 12, 6, 5, 29, 5, 36, 0)
s = 177: (0, 19, 11, 8, 8, 9, 7, 5, 16, 6, 34, 0)
s = 178: (0, 17, 11, 9, 9, 12, 6, 7, 11, 5, 31, 0)
s = 179: (0, 28, 6, 14, 17, 12, 5, 11, 9, 6, 28, 0)
s = 180: (0, 23, 9, 9, 11, 11, 7, 5, 13, 5, 21, 0)
s = 181: (0, 21, 8, 9, 7, 11, 6, 6, 11, 5, 27, 0)
s = 182: (0, 28, 9, 7, 5, 12, 6, 6, 14, 7, 24, 0)
s = 183: (0, 26, 11, 12, 15, 6, 6, 6, 13, 5, 20, 0)
s = 184: (0, 17, 8, 10, 8, 9, 4, 6, 10, 6, 18, 0)
s = 185: (0, 15, 14, 7, 10, 7, 7, 5, 13, 6, 35, 0)
s = 186: (0, 21, 7, 6, 7, 6, 6, 7, 12, 5, 20, 0)
s = 187: (0, 28, 15, 9, 8, 12, 9, 10, 20, 3, 28, 0)
s = 188: (0, 23, 13, 11, 8, 8, 5, 6, 22, 5, 27, 0)
s = 189: (0, 14, 17, 14, 11, 12, 10, 6, 21, 6, 34, 0)
s = 190: (0, 19, 14, 13, 14, 7, 8, 4, 21, 6, 41, 0)
s = 191: (0, 14, 12, 10, 9, 13, 8, 8, 18, 5, 32, 0)
s = 192: (0, 17, 7, 11, 10, 6, 7, 7, 20, 6, 38, 0)
s = 193: (0, 13, 8, 7, 7, 10, 6, 7, 11, 4, 36, 0)
s = 194: (0, 12, 9, 18, 8, 6, 6, 9, 10, 7, 29, 0)
s = 195: (0, 15, 10, 10, 9, 7, 5, 8, 19, 5, 30, 0)
s = 196: (0, 23, 10, 10, 11, 7, 7, 7, 20, 8, 24, 0)
s = 197: (0, 20, 7, 14, 9, 6, 6, 5, 19, 7, 30, 0)
s = 198: (0, 19, 11, 11, 11, 13, 9, 5, 15, 8, 32, 0)
s = 199: (0, 21, 11, 6, 11, 12, 6, 7, 11, 5, 34, 0)
s = 200: (0, 16, 11, 12, 7, 8, 11, 6, 14, 4, 32, 0)
------------------------------------------------------------------------
RESOURCE k = 3
s = 1: (0, 15, 5, 15, 15, 17, 6, 7, 9, 10, 58, 0)
s = 2: (0, 20, 5, 9, 17, 16, 8, 7, 6, 6, 40, 0)
s = 3: (0, 15, 6, 8, 8, 34, 8, 7, 6, 14, 40, 0)
s = 4: (0, 21, 6, 9, 9, 17, 7, 6, 6, 7, 45, 0)
s = 5: (0, 20, 6, 8, 15, 33, 6, 7, 6, 7, 62, 0)
s = 6: (0, 8, 6, 8, 14, 21, 7, 6, 8, 8, 37, 0)
s = 7: (0, 19, 8, 11, 12, 16, 6, 7, 7, 14, 29, 0)
s = 8: (0, 11, 4, 11, 18, 24, 7, 7, 6, 15, 51, 0)
s = 9: (0, 7, 5, 7, 11, 22, 8, 5, 7, 11, 55, 0)
s = 10: (0, 8, 6, 8, 9, 27, 6, 6, 5, 8, 26, 0)
s = 11: (0, 15, 7, 8, 9, 18, 5, 9, 4, 10, 32, 0)
s = 12: (0, 14, 7, 10, 19, 16, 6, 6, 5, 11, 51, 0)
s = 13: (0, 13, 5, 11, 10, 15, 7, 5, 6, 5, 25, 0)
s = 14: (0, 9, 5, 11, 12, 21, 7, 5, 6, 8, 61, 0)
s = 15: (0, 14, 8, 10, 11, 26, 6, 8, 6, 11, 34, 0)
s = 16: (0, 11, 5, 11, 17, 20, 8, 9, 5, 15, 49, 0)
s = 17: (0, 10, 4, 7, 12, 22, 5, 6, 4, 9, 45, 0)
s = 18: (0, 12, 11, 13, 9, 25, 6, 5, 9, 11, 54, 0)
s = 19: (0, 16, 5, 10, 14, 25, 7, 7, 7, 9, 45, 0)
s = 20: (0, 11, 6, 13, 8, 36, 10, 8, 7, 6, 59, 0)
s = 21: (0, 14, 9, 12, 9, 17, 6, 8, 7, 9, 59, 0)
s = 22: (0, 10, 5, 14, 11, 26, 7, 4, 6, 13, 26, 0)
s = 23: (0, 17, 7, 11, 9, 26, 9, 5, 5, 12, 37, 0)
s = 24: (0, 12, 7, 13, 11, 25, 7, 4, 6, 12, 34, 0)
s = 25: (0, 23, 7, 11, 12, 14, 6, 8, 8, 11, 28, 0)
s = 26: (0, 9, 4, 7, 12, 12, 11, 7, 6, 12, 38, 0)
s = 27: (0, 18, 9, 9, 11, 25, 8, 8, 8, 8, 44, 0)
s = 28: (0, 14, 6, 8, 16, 20, 5, 7, 7, 9, 38, 0)
s = 29: (0, 13, 5, 9, 14, 17, 4, 9, 7, 12, 57, 0)
s = 30: (0, 10, 6, 9, 19, 15, 7, 8, 9, 11, 40, 0)
s = 31: (0, 13, 5, 11, 10, 21, 5, 5, 7, 15, 42, 0)
s = 32: (0, 15, 6, 7, 19, 22, 4, 9, 6, 11, 33, 0)
s = 33: (0, 19, 6, 8, 17, 16, 11, 8, 7, 10, 34, 0)
s = 34: (0, 9, 10, 8, 13, 18, 9, 5, 8, 8, 44, 0)
s = 35: (0, 13, 7, 17, 7, 40, 9, 4, 6, 7, 57, 0)
s = 36: (0, 17, 6, 10, 17, 31, 6, 8, 6, 7, 31, 0)
s = 37: (0, 14, 5, 18, 7, 18, 9, 5, 5, 11, 28, 0)
s = 38: (0, 11, 7, 14, 16, 41, 4, 8, 7, 12, 45, 0)
s = 39: (0, 12, 8, 14, 11, 24, 7, 7, 8, 8, 42, 0)
s = 40: (0, 13, 7, 12, 14, 18, 7, 10, 8, 8, 57, 0)
s = 41: (0, 16, 5, 7, 12, 29, 12, 6, 6, 14, 36, 0)
s = 42: (0, 14, 6, 7, 10, 15, 4, 7, 4, 9, 53, 0)
s = 43: (0, 11, 8, 8, 14, 22, 7, 5, 8, 8, 36, 0)
s = 44: (0, 15, 7, 15, 8, 17, 7, 5, 8, 9, 44, 0)
s = 45: (0, 11, 9, 10, 8, 24, 5, 9, 9, 7, 45, 0)
s = 46: (0, 12, 8, 13, 12, 26, 8, 4, 6, 9, 43, 0)
s = 47: (0, 9, 5, 8, 18, 19, 6, 5, 6, 8, 37, 0)
s = 48: (0, 10, 7, 12, 12, 16, 7, 5, 6, 14, 44, 0)
s = 49: (0, 9, 8, 14, 13, 16, 4, 5, 8, 10, 50, 0)
s = 50: (0, 12, 5, 8, 8, 19, 6, 9, 5, 7, 61, 0)
s = 51: (0, 12, 9, 18, 9, 18, 4, 6, 4, 13, 59, 0)
s = 52: (0, 12, 9, 9, 12, 17, 6, 4, 5, 7, 52, 0)
s = 53: (0, 16, 5, 15, 17, 29, 6, 7, 7, 13, 50, 0)
s = 54: (0, 12, 5, 10, 15, 26, 5, 5, 5, 11, 36, 0)
s = 55: (0, 9, 10, 11, 12, 19, 5, 6, 8, 6, 64, 0)
s = 56: (0, 14, 6, 11, 12, 12, 6, 6, 8, 5, 72, 0)
s = 57: (0, 12, 5, 9, 11, 16, 6, 6, 5, 9, 50, 0)
s = 58: (0, 18, 5, 10, 10, 19, 4, 6, 7, 7, 41, 0)
s = 59: (0, 13, 7, 13, 15, 18, 5, 6, 8, 12, 31, 0)
s = 60: (0, 19, 5, 9, 12, 16, 5, 5, 8, 9, 77, 0)
s = 61: (0, 14, 4, 14, 12, 17, 5, 6, 6, 8, 35, 0)
s = 62: (0, 12, 5, 10, 19, 20, 6, 7, 6, 8, 30, 0)
s = 63: (0, 8, 8, 8, 10, 30, 4, 4, 9, 6, 45, 0)
s = 64: (0, 10, 9, 13, 20, 17, 7, 7, 10, 13, 44, 0)
s = 65: (0, 14, 10, 7, 14, 23, 7, 6, 8, 10, 38, 0)
s = 66: (0, 17, 6, 12, 13, 23, 5, 5, 7, 8, 63, 0)
s = 67: (0, 11, 5, 8, 8, 17, 5, 8, 5, 13, 52, 0)
s = 68: (0, 12, 7, 9, 18, 14, 8, 8, 4, 9, 60, 0)
s = 69: (0, 15, 6, 12, 11, 17, 5, 7, 7, 11, 33, 0)
s = 70: (0, 8, 12, 12, 14, 30, 8, 4, 8, 6, 35, 0)
s = 71: (0, 9, 6, 12, 9, 23, 6, 5, 6, 9, 39, 0)
s = 72: (0, 11, 6, 9, 20, 29, 8, 6, 5, 7, 40, 0)
s = 73: (0, 10, 4, 13, 10, 21, 6, 5, 4, 12, 44, 0)
s = 74: (0, 17, 7, 7, 14, 22, 7, 5, 7, 9, 41, 0)
s = 75: (0, 13, 8, 13, 13, 20, 7, 7, 4, 5, 28, 0)
s = 76: (0, 12, 6, 10, 7, 32, 6, 5, 4, 10, 47, 0)
s = 77: (0, 9, 7, 11, 15, 18, 5, 6, 7, 14, 41, 0)
s = 78: (0, 15, 5, 15, 15, 26, 7, 6, 6, 11, 54, 0)
s = 79: (0, 18, 12, 8, 17, 24, 5, 7, 4, 10, 68, 0)
s = 80: (0, 12, 5, 11, 9, 31, 6, 7, 5, 9, 47, 0)
s = 81: (0, 13, 6, 6, 11, 33, 9, 4, 6, 10, 49, 0)
s = 82: (0, 8, 7, 16, 16, 16, 6, 7, 7, 8, 32, 0)
s = 83: (0, 13, 6, 11, 14, 27, 4, 7, 12, 12, 39, 0)
s = 84: (0, 10, 8, 14, 9, 14, 9, 5, 8, 9, 36, 0)
s = 85: (0, 11, 7, 13, 12, 16, 6, 4, 5, 9, 45, 0)
s = 86: (0, 22, 10, 11, 12, 25, 8, 6, 6, 10, 80, 0)
s = 87: (0, 11, 7, 8, 19, 17, 6, 5, 7, 10, 51, 0)
s = 88: (0, 17, 4, 10, 19, 16, 6, 5, 5, 12, 26, 0)
s = 89: (0, 9, 12, 10, 16, 25, 7, 10, 6, 7, 48, 0)
s = 90: (0, 12, 7, 11, 10, 31, 6, 5, 8, 8, 43, 0)
s = 91: (0, 9, 9, 17, 14, 16, 8, 4, 5, 10, 33, 0)
s = 92: (0, 9, 9, 10, 16, 21, 9, 6, 7, 7, 37, 0)
s = 93: (0, 11, 5, 7, 17, 14, 4, 6, 5, 8, 41, 0)
s = 94: (0, 8, 7, 12, 12, 30, 6, 5, 6, 10, 79, 0)
s = 95: (0, 12, 4, 7, 14, 17, 5, 6, 4, 10, 33, 0)
s = 96: (0, 13, 5, 13, 15, 19, 9, 7, 7, 13, 40, 0)
s = 97: (0, 12, 6, 8, 11, 13, 7, 8, 6, 8, 36, 0)
s = 98: (0, 13, 9, 9, 10, 28, 10, 6, 5, 10, 41, 0)
s = 99: (0, 8, 8, 9, 12, 22, 6, 8, 5, 6, 70, 0)
s = 100: (0, 11, 4, 8, 10, 23, 4, 10, 9, 6, 62, 0)
s = 101: (0, 9, 6, 9, 18, 21, 4, 6, 4, 9, 55, 0)
s = 102: (0, 15, 8, 8, 12, 19, 10, 6, 7, 10, 82, 0)
s = 103: (0, 16, 4, 8, 10, 27, 6, 7, 7, 13, 36, 0)
s = 104: (0, 7, 4, 8, 20, 17, 10, 8, 4, 11, 42, 0)
s = 105: (0, 15, 8, 11, 11, 26, 7, 4, 5, 9, 37, 0)
s = 106: (0, 22, 6, 7, 8, 24, 4, 10, 6, 10, 45, 0)
s = 107: (0, 12, 8, 11, 9, 30, 5, 8, 8, 7, 59, 0)
s = 108: (0, 12, 6, 13, 13, 27, 7, 6, 4, 12, 37, 0)
s = 109: (0, 13, 6, 14, 11, 13, 4, 8, 8, 8, 33, 0)
s = 110: (0, 11, 5, 11, 15, 33, 5, 7, 7, 9, 25, 0)
s = 111: (0, 15, 7, 7, 13, 12, 6, 9, 5, 5, 38, 0)
s = 112: (0, 13, 6, 9, 7, 24, 7, 7, 8, 9, 30, 0)
s = 113: (0, 19, 4, 10, 10, 21, 6, 5, 7, 8, 47, 0)
s = 114: (0, 11, 7, 8, 11, 16, 7, 5, 8, 7, 29, 0)
s = 115: (0, 11, 4, 7, 16, 16, 10, 5, 4, 14, 45, 0)
s = 116: (0, 16, 6, 8, 9, 27, 8, 6, 5, 7, 39, 0)
s = 117: (0, 11, 7, 7, 10, 16, 6, 11, 7, 13, 48, 0)
s = 118: (0, 18, 8, 12, 10, 38, 4, 9, 4, 6, 40, 0)
s = 119: (0, 16, 5, 10, 7, 16, 4, 8, 6, 15, 43, 0)
s = 120: (0, 19, 5, 13, 13, 33, 5, 5, 4, 10, 30, 0)
s = 121: (0, 7, 5, 6, 10, 18, 6, 5, 6, 8, 61, 0)
s = 122: (0, 14, 6, 12, 9, 19, 6, 6, 5, 11, 41, 0)
s = 123: (0, 19, 5, 12, 13, 21, 8, 7, 9, 6, 29, 0)
s = 124: (0, 13, 4, 11, 11, 18, 6, 8, 8, 12, 31, 0)
s = 125: (0, 8, 6, 9, 11, 18, 7, 8, 6, 14, 72, 0)
s = 126: (0, 19, 9, 9, 13, 14, 6, 7, 8, 9, 27, 0)
s = 127: (0, 12, 9, 12, 14, 26, 5, 5, 4, 6, 38, 0)
s = 128: (0, 20, 9, 11, 14, 13, 4, 4, 5, 7, 60, 0)
s = 129: (0, 17, 11, 12, 14, 22, 8, 5, 6, 9, 72, 0)
s = 130: (0, 10, 7, 12, 11, 20, 5, 6, 8, 10, 59, 0)
s = 131: (0, 13, 7, 10, 16, 25, 4, 6, 11, 11, 38, 0)
s = 132: (0, 12, 4, 11, 11, 24, 6, 4, 11, 12, 32, 0)
s = 133: (0, 8, 7, 8, 16, 23, 6, 6, 4, 10, 40, 0)
s = 134: (0, 12, 11, 9, 12, 21, 5, 6, 10, 11, 34, 0)
s = 135: (0, 9, 5, 10, 10, 38, 7, 6, 6, 6, 60, 0)
s = 136: (0, 7, 9, 11, 8, 21, 12, 6, 7, 14, 60, 0)
s = 137: (0, 14, 7, 8, 10, 20, 6, 5, 6, 6, 36, 0)
s = 138: (0, 12, 7, 10, 9, 18, 5, 6, 5, 9, 48, 0)
s = 139: (0, 12, 4, 8, 13, 23, 4, 5, 7, 7, 49, 0)
s = 140: (0, 11, 8, 8, 10, 24, 6, 4, 5, 12, 39, 0)
s = 141: (0, 16, 6, 7, 11, 16, 6, 8, 7, 9, 34, 0)
s = 142: (0, 13, 5, 6, 13, 12, 7, 7, 7, 11, 38, 0)
s = 143: (0, 14, 5, 11, 9, 27, 5, 10, 5, 9, 26, 0)
s = 144: (0, 14, 11, 10, 13, 27, 6, 6, 5, 7, 40, 0)
s = 145: (0, 13, 4, 6, 14, 23, 6, 8, 4, 10, 64, 0)
s = 146: (0, 14, 6, 8, 10, 22, 8, 7, 6, 11, 43, 0)
s = 147: (0, 19, 5, 9, 14, 16, 7, 8, 8, 9, 45, 0)
s = 148: (0, 13, 6, 9, 14, 22, 6, 7, 4, 9, 85, 0)
s = 149: (0, 9, 6, 11, 14, 12, 7, 8, 11, 8, 31, 0)
s = 150: (0, 11, 8, 8, 10, 20, 8, 9, 9, 10, 25, 0)
s = 151: (0, 16, 5, 8, 19, 22, 11, 10, 9, 7, 41, 0)
s = 152: (0, 7, 9, 12, 18, 13, 5, 6, 7, 15, 57, 0)
s = 153: (0, 9, 10, 8, 19, 20, 10, 8, 7, 9, 49, 0)
s = 154: (0, 11, 7, 7, 9, 20, 7, 6, 8, 8, 67, 0)
s = 155: (0, 15, 5, 11, 12, 22, 5, 4, 8, 8, 32, 0)
s = 156: (0, 10, 5, 8, 15, 13, 5, 5, 6, 11, 61, 0)
s = 157: (0, 9, 6, 12, 22, 20, 8, 9, 6, 7, 46, 0)
s = 158: (0, 10, 7, 13, 15, 28, 4, 7, 7, 7, 38, 0)
s = 159: (0, 13, 7, 9, 11, 16, 6, 4, 6, 6, 62, 0)
s = 160: (0, 9, 9, 12, 10, 23, 5, 6, 7, 10, 48, 0)
s = 161: (0, 10, 8, 10, 10, 12, 6, 7, 6, 13, 44, 0)
s = 162: (0, 7, 5, 11, 14, 25, 5, 8, 4, 7, 40, 0)
s = 163: (0, 10, 9, 10, 17, 15, 8, 5, 7, 13, 25, 0)
s = 164: (0, 11, 11, 10, 11, 21, 5, 6, 10, 8, 57, 0)
s = 165: (0, 11, 6, 9, 11, 21, 6, 8, 6, 9, 43, 0)
s = 166: (0, 17, 6, 8, 7, 12, 7, 11, 9, 9, 52, 0)
s = 167: (0, 16, 7, 8, 9, 12, 5, 8, 8, 11, 36, 0)
s = 168: (0, 14, 5, 8, 13, 19, 10, 8, 6, 6, 38, 0)
s = 169: (0, 15, 4, 11, 11, 14, 4, 7, 8, 11, 45, 0)
s = 170: (0, 16, 7, 7, 10, 19, 6, 5, 8, 6, 56, 0)
s = 171: (0, 11, 8, 13, 11, 21, 9, 8, 4, 6, 45, 0)
s = 172: (0, 10, 4, 18, 10, 16, 4, 8, 8, 12, 41, 0)
s = 173: (0, 11, 6, 11, 7, 25, 7, 5, 6, 7, 60, 0)
s = 174: (0, 15, 6, 12, 10, 32, 5, 7, 6, 8, 50, 0)
s = 175: (0, 17, 4, 14, 16, 25, 8, 6, 7, 8, 36, 0)
s = 176: (0, 16, 7, 13, 11, 27, 6, 5, 12, 9, 64, 0)
s = 177: (0, 13, 7, 8, 10, 21, 7, 5, 7, 11, 60, 0)
s = 178: (0, 12, 7, 9, 12, 26, 6, 7, 5, 9, 56, 0)
s = 179: (0, 19, 4, 14, 22, 27, 5, 11, 4, 10, 49, 0)
s = 180: (0, 15, 5, 9, 14, 25, 7, 5, 6, 9, 38, 0)
s = 181: (0, 14, 5, 9, 9, 25, 6, 6, 5, 8, 49, 0)
s = 182: (0, 19, 6, 7, 7, 28, 6, 6, 6, 12, 43, 0)
s = 183: (0, 17, 7, 12, 19, 13, 6, 6, 5, 8, 36, 0)
s = 184: (0, 11, 5, 10, 11, 21, 4, 6, 4, 11, 32, 0)
s = 185: (0, 10, 8, 7, 13, 17, 7, 5, 5, 10, 62, 0)
s = 186: (0, 14, 4, 6, 9, 13, 6, 7, 5, 8, 36, 0)
s = 187: (0, 19, 9, 9, 10, 28, 9, 10, 8, 6, 49, 0)
s = 188: (0, 15, 8, 11, 10, 17, 5, 6, 9, 9, 49, 0)
s = 189: (0, 9, 11, 14, 15, 27, 10, 6, 9, 11, 62, 0)
s = 190: (0, 13, 8, 13, 18, 15, 8, 4, 9, 11, 73, 0)
s = 191: (0, 10, 7, 10, 12, 30, 8, 8, 8, 8, 58, 0)
s = 192: (0, 11, 4, 11, 13, 13, 7, 7, 8, 11, 68, 0)
s = 193: (0, 9, 5, 7, 9, 22, 6, 7, 5, 7, 64, 0)
s = 194: (0, 8, 6, 18, 11, 12, 6, 9, 4, 12, 51, 0)
s = 195: (0, 10, 6, 10, 12, 15, 5, 8, 8, 8, 54, 0)
s = 196: (0, 15, 6, 10, 14, 15, 7, 7, 8, 13, 43, 0)
s = 197: (0, 13, 4, 14, 12, 14, 6, 5, 8, 12, 54, 0)
s = 198: (0, 13, 7, 11, 15, 29, 9, 5, 6, 13, 57, 0)
s = 199: (0, 14, 7, 6, 14, 28, 6, 7, 5, 9, 61, 0)
s = 200: (0, 11, 7, 12, 9, 18, 11, 6, 6, 7, 57, 0)
************************************************************************
ES/LS-VALUES:
jobnr.   ES(i)    LS(i)
------------------------------------------------------------------------
  0        0        0
  1        0       48
  2        0       54
  3        0       64
  4        4       52
  5        9       58
  6        4       64
  7       15       64
  8        4       70
  9        9       74
 10       16       66
 11       25       76
************************************************************************
BIG-M-VALUES:
M1 = 52, M2 = 156
************************************************************************
